Route #1: 12 4 26 34 35
Route #2: 2 6 28 3 11 43 41 27 21
Route #3: 39 14 33 44 24
Route #4: 32 5 19 36 29 31
Route #5: 9 22 30 37 1 42 8
Route #6: 13 38 17 23 25 15 10
Route #7: 18 7 16 20 40
Cost 1146
Time 0.114725
